p cnf 5 31
-4 -5 -3 1 2 3 4 5 0
-4 4 0
 2 3 4 0
 4 0
 2 3 5 0
-2 2 0
 1 2 0
-4 -1 -5 -2 -3 1 2 3 4 5 0
-2 -4 -3 1 2 3 4 5 0
-1 -5 1 3 5 0
 4 0
 2 3 4 5 0
-2 -1 1 2 0
-3 -1 1 2 3 4 5 0
-4 -5 2 3 4 5 0
 1 0
-3 -2 1 2 3 4 5 0
-3 -2 -4 2 3 4 5 0
-2 2 0
-2 -3 -4 2 3 4 5 0
-2 -1 1 2 0
 2 4 0
-2 -4 1 2 3 4 5 0
-4 -5 -2 1 2 3 4 5 0
 4 0
 1 2 3 0
